(set-logic QF_UF)
(declare-fun A0 () Bool)
(declare-fun A1 () Bool)
(declare-fun A2 () Bool)
(declare-fun A3 () Bool)
(declare-fun A4 () Bool)
(declare-fun A5 () Bool)
(declare-fun A6 () Bool)
(declare-fun A7 () Bool)
(declare-fun A8 () Bool)
(declare-fun A9 () Bool)
(declare-fun A10 () Bool)
(declare-fun A11 () Bool)
(declare-fun A12 () Bool)
(declare-fun A14 () Bool)
(declare-fun A15 () Bool)
(declare-fun A16 () Bool)
(declare-fun A17 () Bool)
(declare-fun A18 () Bool)
(declare-fun A19 () Bool)
(declare-fun A20 () Bool)
(declare-fun A21 () Bool)
(declare-fun A22 () Bool)
(declare-fun A23 () Bool)
(declare-fun A24 () Bool)
(assert (let ((.def_0 (and A22 A2))) (let ((.def_1 (not A1))) (let ((.def_2 (not A22))) (let ((.def_3 (= .def_2 .def_1))) (let ((.def_4 (not .def_3))) (let ((.def_5 (or .def_4 .def_0))) (let ((.def_6 (not .def_5))) (let ((.def_7 (not A5))) (let ((.def_8 (not A3))) (let ((.def_9 (or .def_8 .def_7))) (let ((.def_10 (not .def_9))) (let ((.def_11 (and A11 A0))) (let ((.def_12 (not .def_11))) (let ((.def_13 (and .def_12 .def_10))) (let ((.def_14 (not .def_13))) (let ((.def_15 (and .def_14 .def_6))) (let ((.def_16 (not A15))) (let ((.def_17 (or .def_16 A17))) (let ((.def_18 (not .def_17))) (let ((.def_19 (not A9))) (let ((.def_20 (and .def_19 .def_19))) (let ((.def_21 (not .def_20))) (let ((.def_22 (and .def_21 .def_18))) (let ((.def_23 (or A11 A12))) (let ((.def_24 (not .def_23))) (let ((.def_25 (not A8))) (let ((.def_26 (not A14))) (let ((.def_27 (or .def_26 .def_25))) (let ((.def_28 (not .def_27))) (let ((.def_29 (and .def_28 .def_24))) (let ((.def_30 (and .def_29 .def_22))) (let ((.def_31 (not .def_30))) (let ((.def_32 (and .def_31 .def_15))) (let ((.def_33 (not A12))) (let ((.def_34 (or .def_33 A0))) (let ((.def_35 (not .def_34))) (let ((.def_36 (and A14 A14))) (let ((.def_37 (or .def_36 .def_35))) (let ((.def_38 (not .def_37))) (let ((.def_39 (or A5 A3))) (let ((.def_40 (and .def_8 A24))) (let ((.def_41 (not .def_40))) (let ((.def_42 (= .def_41 .def_39))) (let ((.def_43 (or .def_42 .def_38))) (let ((.def_44 (not A20))) (let ((.def_45 (and .def_19 .def_44))) (let ((.def_46 (not A23))) (let ((.def_47 (= .def_46 A5))) (let ((.def_48 (not .def_47))) (let ((.def_49 (and .def_48 .def_45))) (let ((.def_50 (or .def_26 .def_26))) (let ((.def_51 (not .def_50))) (let ((.def_52 (or A19 A22))) (let ((.def_53 (not .def_52))) (let ((.def_54 (or .def_53 .def_51))) (let ((.def_55 (and .def_54 .def_49))) (let ((.def_56 (not .def_55))) (let ((.def_57 (and .def_56 .def_43))) (let ((.def_58 (not .def_57))) (let ((.def_59 (or .def_58 .def_32))) (let ((.def_60 (not A16))) (let ((.def_61 (or .def_60 .def_19))) (let ((.def_62 (not .def_61))) (let ((.def_63 (not A4))) (let ((.def_64 (or .def_44 .def_63))) (let ((.def_65 (not .def_64))) (let ((.def_66 (and .def_65 .def_62))) (let ((.def_67 (not .def_66))) (let ((.def_68 (and A22 .def_16))) (let ((.def_69 (or A8 A5))) (let ((.def_70 (not .def_69))) (let ((.def_71 (and .def_70 .def_68))) (let ((.def_72 (not .def_71))) (let ((.def_73 (= .def_72 .def_67))) (let ((.def_74 (or .def_60 A4))) (let ((.def_75 (or A7 A10))) (let ((.def_76 (not .def_75))) (let ((.def_77 (and .def_76 .def_74))) (let ((.def_78 (not .def_77))) (let ((.def_79 (and .def_33 A16))) (let ((.def_80 (not A7))) (let ((.def_81 (and A11 .def_80))) (let ((.def_82 (not .def_81))) (let ((.def_83 (or .def_82 .def_79))) (let ((.def_84 (not .def_83))) (let ((.def_85 (and .def_84 .def_78))) (let ((.def_86 (or .def_85 .def_73))) (let ((.def_87 (not .def_86))) (let ((.def_88 (not A17))) (let ((.def_89 (or .def_88 .def_2))) (let ((.def_90 (or .def_8 A1))) (let ((.def_91 (not .def_90))) (let ((.def_92 (and .def_91 .def_89))) (let ((.def_93 (not .def_92))) (let ((.def_94 (not A21))) (let ((.def_95 (or .def_94 .def_8))) (let ((.def_96 (or A22 A14))) (let ((.def_97 (not .def_96))) (let ((.def_98 (or .def_97 .def_95))) (let ((.def_99 (or .def_98 .def_93))) (let ((.def_100 (or A1 A1))) (let ((.def_101 (= A6 A18))) (let ((.def_102 (and .def_101 .def_100))) (let ((.def_103 (not .def_102))) (let ((.def_104 (not A19))) (let ((.def_105 (and .def_104 A0))) (let ((.def_106 (not .def_105))) (let ((.def_107 (or .def_33 A8))) (let ((.def_108 (or .def_107 .def_106))) (let ((.def_109 (or .def_108 .def_103))) (let ((.def_110 (not .def_109))) (let ((.def_111 (and .def_110 .def_99))) (let ((.def_112 (not .def_111))) (let ((.def_113 (or .def_112 .def_87))) (let ((.def_114 (not .def_113))) (let ((.def_115 (and .def_114 .def_59))) .def_115)))))))))))))))))))))))))))))))))))))))))))))))))))))))))))))))))))))))))))))))))))))))))))))))))))))))))))))))))))))
(check-sat)
